* ENCODING=ISO-8859-1
NAME          CPLEX
ROWS
 N  obj1    
 G  c1      
 G  c2      
 G  c3      
 G  c4      
 G  c5      
 G  c6      
 G  c7      
 G  c8      
 G  c9      
 G  c10     
 G  c11     
 G  c12     
 G  c13     
 G  c14     
 G  c15     
 G  c16     
 G  c17     
 G  c18     
 G  c19     
 G  c20     
 G  c21     
 G  c22     
 G  c23     
 G  c24     
 G  c25     
 G  c26     
 G  c27     
 G  c28     
 G  c29     
 G  c30     
COLUMNS
    MARK0000  'MARKER'                 'INTORG'
    x1        obj1                            1
    x2        obj1                            1
    x2        c3                            656
    x2        c7                            775
    x3        obj1                            1
    x3        c17                           325
    x3        c24                           552
    x3        c27                           729
    x4        obj1                            1
    x4        c2                            964
    x4        c7                            511
    x4        c14                           225
    x4        c24                           305
    x4        c28                           995
    x4        c29                           567
    x5        obj1                            1
    x5        c4                            968
    x5        c21                           894
    x5        c28                           169
    x6        obj1                            1
    x6        c18                           139
    x6        c25                           622
    x7        obj1                            1
    x7        c7                            819
    x7        c21                           443
    x8        obj1                            1
    x9        obj1                            1
    x10       obj1                            1
    x10       c8                            403
    x10       c21                           584
    x11       obj1                            1
    x11       c19                           568
    x11       c28                           344
    x12       obj1                            1
    x12       c2                            831
    x12       c6                            715
    x12       c10                           596
    x12       c14                           314
    x12       c16                           966
    x13       obj1                            1
    x13       c15                           809
    x13       c23                           262
    x14       obj1                            1
    x14       c5                            404
    x14       c7                            129
    x14       c14                           378
    x14       c16                           154
    x14       c18                           211
    x14       c20                           712
    x14       c28                           275
    x15       obj1                            1
    x15       c2                            141
    x16       obj1                            1
    x16       c29                           933
    x17       obj1                            1
    x17       c9                            634
    x17       c16                           499
    x17       c20                           546
    x18       obj1                            1
    x18       c13                           213
    x18       c25                           891
    x18       c30                           681
    x19       obj1                            1
    x19       c4                            223
    x19       c5                            306
    x19       c8                            661
    x19       c14                           590
    x19       c26                           879
    x19       c30                           587
    x20       obj1                            1
    x20       c16                           897
    x21       obj1                            1
    x21       c6                            400
    x21       c29                           671
    x22       obj1                            1
    x22       c10                           378
    x22       c27                           123
    x23       obj1                            1
    x23       c15                           920
    x23       c21                           560
    x24       obj1                            1
    x24       c4                            815
    x24       c9                            921
    x24       c27                           805
    x25       obj1                            1
    x25       c2                            971
    x26       obj1                            1
    x26       c2                            952
    x26       c3                            897
    x26       c8                            884
    x26       c9                            549
    x26       c13                           181
    x26       c15                           598
    x26       c18                           826
    x26       c19                           810
    x26       c22                           110
    x27       obj1                            1
    x27       c1                            993
    x27       c18                           641
    x27       c27                           835
    x28       obj1                            1
    x29       obj1                            1
    x29       c1                            750
    x29       c6                            532
    x29       c27                           671
    x30       obj1                            1
    x30       c13                           956
    x30       c25                           296
    x30       c27                           817
    x31       obj1                            1
    x31       c2                            665
    x31       c7                            174
    x32       obj1                            1
    x32       c3                            536
    x32       c12                           839
    x33       obj1                            1
    x33       c3                            538
    x33       c6                            635
    x33       c17                           644
    x34       obj1                            1
    x34       c19                           727
    x35       obj1                            1
    x35       c21                           742
    x36       obj1                            1
    x36       c8                            997
    x36       c10                           319
    x36       c14                           440
    x36       c17                           346
    x36       c23                           734
    x36       c25                           917
    x37       obj1                            1
    x37       c19                           922
    x37       c24                           595
    x37       c27                           975
    x37       c28                           220
    x38       obj1                            1
    x38       c16                           358
    x39       obj1                            1
    x39       c6                            281
    x39       c10                           945
    x39       c15                           503
    x39       c18                           121
    x39       c30                           609
    x40       obj1                            1
    x40       c1                            768
    x40       c17                           976
    x41       obj1                            1
    x41       c9                            859
    x41       c18                           961
    x41       c27                           323
    x42       obj1                            1
    x42       c1                            198
    x42       c19                           294
    x43       obj1                            1
    x43       c7                            680
    x43       c9                            861
    x43       c11                           823
    x43       c28                           913
    x44       obj1                            1
    x44       c16                           276
    x45       obj1                            1
    x45       c2                            195
    x45       c11                           824
    x45       c20                           106
    x45       c27                           527
    x46       obj1                            1
    x46       c12                           888
    x46       c28                           506
    x46       c30                           486
    x47       obj1                            1
    x47       c3                            258
    x47       c23                           821
    x47       c29                           813
    x48       obj1                            1
    x48       c6                            522
    x49       obj1                            1
    x49       c8                            458
    x49       c29                           705
    x50       obj1                            1
    x50       c11                           633
    x50       c18                           815
    x50       c19                           994
    x50       c24                           353
    x51       obj1                            1
    x51       c9                            435
    x51       c15                           295
    x51       c16                           613
    x51       c18                           601
    x52       obj1                            1
    x52       c9                            273
    x52       c22                           928
    x53       obj1                            1
    x53       c5                            350
    x53       c13                           739
    x53       c15                           921
    x53       c17                           595
    x53       c19                           365
    x53       c22                           954
    x53       c25                           558
    x54       obj1                            1
    x54       c12                           338
    x54       c13                           170
    x54       c25                           686
    x54       c26                           196
    x54       c29                           370
    x55       obj1                            1
    x55       c1                            906
    x55       c6                            155
    x55       c10                           800
    x55       c13                           737
    x55       c15                           772
    x55       c18                           837
    x56       obj1                            1
    x56       c7                            393
    x56       c13                           151
    x56       c15                           248
    x56       c22                           911
    x56       c26                           772
    x57       obj1                            1
    x57       c6                            961
    x57       c15                           432
    x57       c30                           205
    x58       obj1                            1
    x58       c17                           802
    x58       c21                           123
    x59       obj1                            1
    x59       c7                            246
    x59       c19                           621
    x59       c30                           461
    x60       obj1                            1
    x60       c19                           722
    MARK0001  'MARKER'                 'INTEND'
RHS
    rhs       c1                           1808
    rhs       c2                           2360
    rhs       c3                           1443
    rhs       c4                           1003
    rhs       c5                            530
    rhs       c6                           2101
    rhs       c7                           1864
    rhs       c8                           1702
    rhs       c9                           2266
    rhs       c10                          1519
    rhs       c11                          1140
    rhs       c12                          1033
    rhs       c13                          1574
    rhs       c14                           974
    rhs       c15                          2749
    rhs       c16                          1882
    rhs       c17                          1844
    rhs       c18                          2576
    rhs       c19                          3012
    rhs       c20                           682
    rhs       c21                          1673
    rhs       c22                          1452
    rhs       c23                           909
    rhs       c24                           903
    rhs       c25                          1985
    rhs       c26                           924
    rhs       c27                          2903
    rhs       c28                          1711
    rhs       c29                          2030
    rhs       c30                          1515
BOUNDS
 LI bnd       x1        0
 LI bnd       x2        0
 LI bnd       x3        0
 LI bnd       x4        0
 LI bnd       x5        0
 LI bnd       x6        0
 LI bnd       x7        0
 LI bnd       x8        0
 LI bnd       x9        0
 LI bnd       x10       0
 LI bnd       x11       0
 LI bnd       x12       0
 LI bnd       x13       0
 LI bnd       x14       0
 LI bnd       x15       0
 LI bnd       x16       0
 LI bnd       x17       0
 LI bnd       x18       0
 LI bnd       x19       0
 LI bnd       x20       0
 LI bnd       x21       0
 LI bnd       x22       0
 LI bnd       x23       0
 LI bnd       x24       0
 LI bnd       x25       0
 LI bnd       x26       0
 LI bnd       x27       0
 LI bnd       x28       0
 LI bnd       x29       0
 LI bnd       x30       0
 LI bnd       x31       0
 LI bnd       x32       0
 LI bnd       x33       0
 LI bnd       x34       0
 LI bnd       x35       0
 LI bnd       x36       0
 LI bnd       x37       0
 LI bnd       x38       0
 LI bnd       x39       0
 LI bnd       x40       0
 LI bnd       x41       0
 LI bnd       x42       0
 LI bnd       x43       0
 LI bnd       x44       0
 LI bnd       x45       0
 LI bnd       x46       0
 LI bnd       x47       0
 LI bnd       x48       0
 LI bnd       x49       0
 LI bnd       x50       0
 LI bnd       x51       0
 LI bnd       x52       0
 LI bnd       x53       0
 LI bnd       x54       0
 LI bnd       x55       0
 LI bnd       x56       0
 LI bnd       x57       0
 LI bnd       x58       0
 LI bnd       x59       0
 LI bnd       x60       0
ENDATA
